\Problem name: noname                                                           
\FICO Xpress v8.13.5, Community, written 11:38:42, Jun 7, 2022

Minimize
 100000 x_0_0 + 41.23105625617661 x_1_0 + 49.24428900898052 x_2_0
 + 36.05551275463989 x_3_0 + 22.360679774997898 x_4_0 + 30 x_5_0
 + 41.23105625617661 x_0_1 + 100000 x_1_1 + 30.4138126514911 x_2_1
 + 31.622776601683793 x_3_1 + 63.245553203367585 x_4_1
 + 70.71067811865476 x_5_1 + 49.24428900898052 x_0_2 + 30.4138126514911 x_1_2
 + 100000 x_2_2 + 15 x_3_2 + 65.76473218982953 x_4_2 + 77.62087348130012 x_5_2
 + 36.05551275463989 x_0_3 + 31.622776601683793 x_1_3 + 15 x_2_3
 + 100000 x_3_3 + 50.99019513592785 x_4_3 + 63.245553203367585 x_5_3
 + 22.360679774997898 x_0_4 + 63.245553203367585 x_1_4
 + 65.76473218982953 x_2_4 + 50.99019513592785 x_3_4 + 100000 x_4_4
 + 14.142135623730951 x_5_4 + 30 x_0_5 + 70.71067811865476 x_1_5
 + 77.62087348130012 x_2_5 + 63.245553203367585 x_3_5
 + 14.142135623730951 x_4_5 + 100000 x_5_5 + 75000 x_L_0_0 + 22.5 x_L_1_0
 + 23.717082451262844 x_L_2_0 + 22.5 x_L_0_1 + 75000 x_L_1_1
 + 27.04163456597992 x_L_2_1 + 23.717082451262844 x_L_0_2
 + 27.04163456597992 x_L_1_2 + 75000 x_L_2_2 + 85000 x_l0_0_0
 + 12.020815280171307 x_l0_1_0 + 21.25 x_l0_2_0 + 17 x_l0_3_0
 + 43.34166586553867 x_l0_4_0 + 51 x_l0_5_0 + 12.020815280171307 x_l0_0_1
 + 85000 x_l0_1_1 + 25.851740753767434 x_l0_2_1 + 26.87936011143122 x_l0_3_1
 + 53.75872022286244 x_l0_4_1 + 60.10407640085654 x_l0_5_1 + 21.25 x_l0_0_2
 + 25.851740753767434 x_l0_1_2 + 85000 x_l0_2_2 + 12.75 x_l0_3_2
 + 55.9000223613551 x_l0_4_2 + 65.9777424591051 x_l0_5_2 + 17 x_l0_0_3
 + 26.87936011143122 x_l0_1_3 + 12.75 x_l0_2_3 + 85000 x_l0_3_3
 + 43.34166586553867 x_l0_4_3 + 53.75872022286244 x_l0_5_3
 + 43.34166586553867 x_l0_0_4 + 53.75872022286244 x_l0_1_4
 + 55.9000223613551 x_l0_2_4 + 43.34166586553867 x_l0_3_4 + 85000 x_l0_4_4
 + 12.020815280171307 x_l0_5_4 + 51 x_l0_0_5 + 60.10407640085654 x_l0_1_5
 + 65.9777424591051 x_l0_2_5 + 53.75872022286244 x_l0_3_5
 + 12.020815280171307 x_l0_4_5 + 85000 x_l0_5_5 + 85000 x_l1_0_0
 + 30.647185841443907 x_l1_1_0 + 51.87786136686824 x_l1_2_0
 + 45.77390086064328 x_l1_3_0 + 42.5 x_l1_4_0 + 42.5 x_l1_5_0
 + 30.647185841443907 x_l1_0_1 + 85000 x_l1_1_1 + 25.851740753767434 x_l1_2_1
 + 26.87936011143122 x_l1_3_1 + 53.75872022286244 x_l1_4_1
 + 60.10407640085654 x_l1_5_1 + 51.87786136686824 x_l1_0_2
 + 25.851740753767434 x_l1_1_2 + 85000 x_l1_2_2 + 12.75 x_l1_3_2
 + 55.9000223613551 x_l1_4_2 + 65.9777424591051 x_l1_5_2
 + 45.77390086064328 x_l1_0_3 + 26.87936011143122 x_l1_1_3 + 12.75 x_l1_2_3
 + 85000 x_l1_3_3 + 43.34166586553867 x_l1_4_3 + 53.75872022286244 x_l1_5_3
 + 42.5 x_l1_0_4 + 53.75872022286244 x_l1_1_4 + 55.9000223613551 x_l1_2_4
 + 43.34166586553867 x_l1_3_4 + 85000 x_l1_4_4 + 12.020815280171307 x_l1_5_4
 + 42.5 x_l1_0_5 + 60.10407640085654 x_l1_1_5 + 65.9777424591051 x_l1_2_5
 + 53.75872022286244 x_l1_3_5 + 12.020815280171307 x_l1_4_5 + 85000 x_l1_5_5
 + 7.0710678118654755 w_c0_k0 + 20.615528128088304 w_c1_k0
 + 18.027756377319946 w_c2_k0 + 12.5 w_c0_k1 + 24.62214450449026 w_c1_k1
 + 30.516389039334257 w_c2_k1 + 30 w_c0_k2 + 15 w_c1_k2 + 25 w_c2_k2

Subject To
R221: z_c0 + z_c0_l0 + z_c0_l1 + w_c0_k0 + w_c1_k0 + w_c2_k0 + w_c0_k1
          + w_c1_k1 + w_c2_k1 + w_c0_k2 + w_c1_k2 + w_c2_k2 = 1 
R222: z_c1 + z_c1_l0 + z_c1_l1 + w_c0_k0 + w_c1_k0 + w_c2_k0 + w_c0_k1
          + w_c1_k1 + w_c2_k1 + w_c0_k2 + w_c1_k2 + w_c2_k2 = 1 
R223: z_c2 + z_c2_l0 + z_c2_l1 + w_c0_k0 + w_c1_k0 + w_c2_k0 + w_c0_k1
          + w_c1_k1 + w_c2_k1 + w_c0_k2 + w_c1_k2 + w_c2_k2 = 1 
R224: z_c3 + z_c3_l0 + z_c3_l1 + w_c0_k0 + w_c1_k0 + w_c2_k0 + w_c0_k1
          + w_c1_k1 + w_c2_k1 + w_c0_k2 + w_c1_k2 + w_c2_k2 = 1 
R225: z_c4 + z_c4_l0 + z_c4_l1 + w_c0_k0 + w_c1_k0 + w_c2_k0 + w_c0_k1
          + w_c1_k1 + w_c2_k1 + w_c0_k2 + w_c1_k2 + w_c2_k2 = 1 
R226: w_c0_k0 + w_c1_k0 + w_c2_k0 <= 1 
R227: w_c0_k1 + w_c1_k1 + w_c2_k1 <= 1 
R228: w_c0_k2 + w_c1_k2 + w_c2_k2 <= 1 
R229: z_c0_l0 + z_c1_l0 + z_c2_l0 + z_c3_l0 + z_c4_l0 - 4 z_l_L_0 + w_c0_k0
          + w_c1_k0 + w_c2_k0 + w_c0_k1 + w_c1_k1 + w_c2_k1 + w_c0_k2 + w_c1_k2
          + w_c2_k2 <= -3 
R230: z_c0_l1 + z_c1_l1 + z_c2_l1 + z_c3_l1 + z_c4_l1 - 4 z_l_L_1 + w_c0_k0
          + w_c1_k0 + w_c2_k0 + w_c0_k1 + w_c1_k1 + w_c2_k1 + w_c0_k2 + w_c1_k2
          + w_c2_k2 <= -3 
R231: x_0_1 + x_1_1 + x_2_1 + x_3_1 + x_4_1 + x_5_1 - z_c0 = 0 
R232: x_0_2 + x_1_2 + x_2_2 + x_3_2 + x_4_2 + x_5_2 - z_c1 = 0 
R233: x_0_3 + x_1_3 + x_2_3 + x_3_3 + x_4_3 + x_5_3 - z_c2 = 0 
R234: x_0_4 + x_1_4 + x_2_4 + x_3_4 + x_4_4 + x_5_4 - z_c3 = 0 
R235: x_0_5 + x_1_5 + x_2_5 + x_3_5 + x_4_5 + x_5_5 - z_c4 = 0 
R236: x_1_0 + x_1_1 + x_1_2 + x_1_3 + x_1_4 + x_1_5 - z_c0 = 0 
R237: x_2_0 + x_2_1 + x_2_2 + x_2_3 + x_2_4 + x_2_5 - z_c1 = 0 
R238: x_3_0 + x_3_1 + x_3_2 + x_3_3 + x_3_4 + x_3_5 - z_c2 = 0 
R239: x_4_0 + x_4_1 + x_4_2 + x_4_3 + x_4_4 + x_4_5 - z_c3 = 0 
R240: x_5_0 + x_5_1 + x_5_2 + x_5_3 + x_5_4 + x_5_5 - z_c4 = 0 
R241: - x_1_0 + x_0_1 + x_2_1 + x_3_1 + x_4_1 + x_5_1 - x_1_2 - x_1_3 - x_1_4
          - x_1_5 = 0 
R242: - x_2_0 - x_2_1 + x_0_2 + x_1_2 + x_3_2 + x_4_2 + x_5_2 - x_2_3 - x_2_4
          - x_2_5 = 0 
R243: - x_3_0 - x_3_1 - x_3_2 + x_0_3 + x_1_3 + x_2_3 + x_4_3 + x_5_3 - x_3_4
          - x_3_5 = 0 
R244: - x_4_0 - x_4_1 - x_4_2 - x_4_3 + x_0_4 + x_1_4 + x_2_4 + x_3_4 + x_5_4
          - x_4_5 = 0 
R245: - x_5_0 - x_5_1 - x_5_2 - x_5_3 - x_5_4 + x_0_5 + x_1_5 + x_2_5 + x_3_5
          + x_4_5 = 0 
R246: x_1_0 + x_2_0 + x_3_0 + x_4_0 + x_5_0 - x_0_1 - x_0_2 - x_0_3 - x_0_4
          - x_0_5 = 0 
R247: y_1_0 - y_0_1 - y_2_1 - y_3_1 - y_4_1 - y_5_1 + y_1_2 + y_1_3 + y_1_4
          + y_1_5 - z_c0 = 0 
R248: y_2_0 + y_2_1 - y_0_2 - y_1_2 - y_3_2 - y_4_2 - y_5_2 + y_2_3 + y_2_4
          + y_2_5 - z_c1 = 0 
R249: y_3_0 + y_3_1 + y_3_2 - y_0_3 - y_1_3 - y_2_3 - y_4_3 - y_5_3 + y_3_4
          + y_3_5 - z_c2 = 0 
R250: y_4_0 + y_4_1 + y_4_2 + y_4_3 - y_0_4 - y_1_4 - y_2_4 - y_3_4 - y_5_4
          + y_4_5 - z_c3 = 0 
R251: y_5_0 + y_5_1 + y_5_2 + y_5_3 + y_5_4 - y_0_5 - y_1_5 - y_2_5 - y_3_5
          - y_4_5 - z_c4 = 0 
R252: - y_1_0 - y_2_0 - y_3_0 - y_4_0 - y_5_0 + y_0_1 + y_0_2 + y_0_3 + y_0_4
          + y_0_5 + z_c0 + z_c1 + z_c2 + z_c3 + z_c4 = 0 
R253: - 3 x_0_0 + y_0_0 <= 0 
R254: - 3 x_1_0 + y_1_0 <= 0 
R255: - 3 x_2_0 + y_2_0 <= 0 
R256: - 3 x_3_0 + y_3_0 <= 0 
R257: - 3 x_4_0 + y_4_0 <= 0 
R258: - 3 x_5_0 + y_5_0 <= 0 
R259: - 3 x_0_1 + y_0_1 <= 0 
R260: - 3 x_1_1 + y_1_1 <= 0 
R261: - 3 x_2_1 + y_2_1 <= 0 
R262: - 3 x_3_1 + y_3_1 <= 0 
R263: - 3 x_4_1 + y_4_1 <= 0 
R264: - 3 x_5_1 + y_5_1 <= 0 
R265: - 3 x_0_2 + y_0_2 <= 0 
R266: - 3 x_1_2 + y_1_2 <= 0 
R267: - 3 x_2_2 + y_2_2 <= 0 
R268: - 3 x_3_2 + y_3_2 <= 0 
R269: - 3 x_4_2 + y_4_2 <= 0 
R270: - 3 x_5_2 + y_5_2 <= 0 
R271: - 3 x_0_3 + y_0_3 <= 0 
R272: - 3 x_1_3 + y_1_3 <= 0 
R273: - 3 x_2_3 + y_2_3 <= 0 
R274: - 3 x_3_3 + y_3_3 <= 0 
R275: - 3 x_4_3 + y_4_3 <= 0 
R276: - 3 x_5_3 + y_5_3 <= 0 
R277: - 3 x_0_4 + y_0_4 <= 0 
R278: - 3 x_1_4 + y_1_4 <= 0 
R279: - 3 x_2_4 + y_2_4 <= 0 
R280: - 3 x_3_4 + y_3_4 <= 0 
R281: - 3 x_4_4 + y_4_4 <= 0 
R282: - 3 x_5_4 + y_5_4 <= 0 
R283: - 3 x_0_5 + y_0_5 <= 0 
R284: - 3 x_1_5 + y_1_5 <= 0 
R285: - 3 x_2_5 + y_2_5 <= 0 
R286: - 3 x_3_5 + y_3_5 <= 0 
R287: - 3 x_4_5 + y_4_5 <= 0 
R288: - 3 x_5_5 + y_5_5 <= 0 
R289: y_0_1 = 0 
R290: y_0_2 = 0 
R291: y_0_3 = 0 
R292: y_0_4 = 0 
R293: y_0_5 = 0 
R294: x_L_0_1 + x_L_1_1 + x_L_2_1 - z_l_L_0 = 0 
R295: x_L_0_2 + x_L_1_2 + x_L_2_2 - z_l_L_1 = 0 
R296: x_L_1_0 + x_L_1_1 + x_L_1_2 - z_l_L_0 = 0 
R297: x_L_2_0 + x_L_2_1 + x_L_2_2 - z_l_L_1 = 0 
R298: - x_L_1_0 + x_L_0_1 + x_L_2_1 - x_L_1_2 = 0 
R299: - x_L_2_0 - x_L_2_1 + x_L_0_2 + x_L_1_2 = 0 
R300: x_L_1_0 + x_L_2_0 - x_L_0_1 - x_L_0_2 = 0 
R301: y_L_1_0 - y_L_0_1 - y_L_2_1 + y_L_1_2 - z_c0_l0 - z_c1_l0 - z_c2_l0
          - z_c3_l0 - z_c4_l0 - w_c0_k0 - w_c1_k0 - w_c2_k0 - w_c0_k1 - w_c1_k1
          - w_c2_k1 - w_c0_k2 - w_c1_k2 - w_c2_k2 = 3 
R302: y_L_2_0 + y_L_2_1 - y_L_0_2 - y_L_1_2 - z_c0_l1 - z_c1_l1 - z_c2_l1
          - z_c3_l1 - z_c4_l1 - w_c0_k0 - w_c1_k0 - w_c2_k0 - w_c0_k1 - w_c1_k1
          - w_c2_k1 - w_c0_k2 - w_c1_k2 - w_c2_k2 = 3 
R303: - y_L_1_0 - y_L_2_0 + y_L_0_1 + y_L_0_2 + z_c0_l0 + z_c1_l0 + z_c2_l0
          + z_c3_l0 + z_c4_l0 + z_c0_l1 + z_c1_l1 + z_c2_l1 + z_c3_l1 + z_c4_l1
          + 2 w_c0_k0 + 2 w_c1_k0 + 2 w_c2_k0 + 2 w_c0_k1 + 2 w_c1_k1
          + 2 w_c2_k1 + 2 w_c0_k2 + 2 w_c1_k2 + 2 w_c2_k2 = -6 
R304: - 7 x_L_0_0 + y_L_0_0 <= 0 
R305: - 7 x_L_1_0 + y_L_1_0 <= 0 
R306: - 7 x_L_2_0 + y_L_2_0 <= 0 
R307: - 7 x_L_0_1 + y_L_0_1 <= 0 
R308: - 7 x_L_1_1 + y_L_1_1 <= 0 
R309: - 7 x_L_2_1 + y_L_2_1 <= 0 
R310: - 7 x_L_0_2 + y_L_0_2 <= 0 
R311: - 7 x_L_1_2 + y_L_1_2 <= 0 
R312: - 7 x_L_2_2 + y_L_2_2 <= 0 
R313: y_L_0_1 = 0 
R314: y_L_0_2 = 0 
R315: x_l0_0_1 + x_l0_1_1 + x_l0_2_1 + x_l0_3_1 + x_l0_4_1 + x_l0_5_1 - z_c0_l0
          = 0 
R316: x_l0_0_2 + x_l0_1_2 + x_l0_2_2 + x_l0_3_2 + x_l0_4_2 + x_l0_5_2 - z_c1_l0
          = 0 
R317: x_l0_0_3 + x_l0_1_3 + x_l0_2_3 + x_l0_3_3 + x_l0_4_3 + x_l0_5_3 - z_c2_l0
          = 0 
R318: x_l0_0_4 + x_l0_1_4 + x_l0_2_4 + x_l0_3_4 + x_l0_4_4 + x_l0_5_4 - z_c3_l0
          = 0 
R319: x_l0_0_5 + x_l0_1_5 + x_l0_2_5 + x_l0_3_5 + x_l0_4_5 + x_l0_5_5 - z_c4_l0
          = 0 
R320: x_l0_1_0 + x_l0_1_1 + x_l0_1_2 + x_l0_1_3 + x_l0_1_4 + x_l0_1_5 - z_c0_l0
          = 0 
R321: x_l0_2_0 + x_l0_2_1 + x_l0_2_2 + x_l0_2_3 + x_l0_2_4 + x_l0_2_5 - z_c1_l0
          = 0 
R322: x_l0_3_0 + x_l0_3_1 + x_l0_3_2 + x_l0_3_3 + x_l0_3_4 + x_l0_3_5 - z_c2_l0
          = 0 
R323: x_l0_4_0 + x_l0_4_1 + x_l0_4_2 + x_l0_4_3 + x_l0_4_4 + x_l0_4_5 - z_c3_l0
          = 0 
R324: x_l0_5_0 + x_l0_5_1 + x_l0_5_2 + x_l0_5_3 + x_l0_5_4 + x_l0_5_5 - z_c4_l0
          = 0 
R325: - x_l0_1_0 + x_l0_0_1 + x_l0_2_1 + x_l0_3_1 + x_l0_4_1 + x_l0_5_1
          - x_l0_1_2 - x_l0_1_3 - x_l0_1_4 - x_l0_1_5 = 0 
R326: - x_l0_2_0 - x_l0_2_1 + x_l0_0_2 + x_l0_1_2 + x_l0_3_2 + x_l0_4_2
          + x_l0_5_2 - x_l0_2_3 - x_l0_2_4 - x_l0_2_5 = 0 
R327: - x_l0_3_0 - x_l0_3_1 - x_l0_3_2 + x_l0_0_3 + x_l0_1_3 + x_l0_2_3
          + x_l0_4_3 + x_l0_5_3 - x_l0_3_4 - x_l0_3_5 = 0 
R328: - x_l0_4_0 - x_l0_4_1 - x_l0_4_2 - x_l0_4_3 + x_l0_0_4 + x_l0_1_4
          + x_l0_2_4 + x_l0_3_4 + x_l0_5_4 - x_l0_4_5 = 0 
R329: - x_l0_5_0 - x_l0_5_1 - x_l0_5_2 - x_l0_5_3 - x_l0_5_4 + x_l0_0_5
          + x_l0_1_5 + x_l0_2_5 + x_l0_3_5 + x_l0_4_5 = 0 
R330: x_l0_1_0 + x_l0_2_0 + x_l0_3_0 + x_l0_4_0 + x_l0_5_0 - x_l0_0_1
          - x_l0_0_2 - x_l0_0_3 - x_l0_0_4 - x_l0_0_5 = 0 
R331: y_l0_1_0 - y_l0_0_1 - y_l0_2_1 - y_l0_3_1 - y_l0_4_1 - y_l0_5_1
          + y_l0_1_2 + y_l0_1_3 + y_l0_1_4 + y_l0_1_5 - z_c0_l0 = 0 
R332: y_l0_2_0 + y_l0_2_1 - y_l0_0_2 - y_l0_1_2 - y_l0_3_2 - y_l0_4_2
          - y_l0_5_2 + y_l0_2_3 + y_l0_2_4 + y_l0_2_5 - z_c1_l0 = 0 
R333: y_l0_3_0 + y_l0_3_1 + y_l0_3_2 - y_l0_0_3 - y_l0_1_3 - y_l0_2_3
          - y_l0_4_3 - y_l0_5_3 + y_l0_3_4 + y_l0_3_5 - z_c2_l0 = 0 
R334: y_l0_4_0 + y_l0_4_1 + y_l0_4_2 + y_l0_4_3 - y_l0_0_4 - y_l0_1_4
          - y_l0_2_4 - y_l0_3_4 - y_l0_5_4 + y_l0_4_5 - z_c3_l0 = 0 
R335: y_l0_5_0 + y_l0_5_1 + y_l0_5_2 + y_l0_5_3 + y_l0_5_4 - y_l0_0_5
          - y_l0_1_5 - y_l0_2_5 - y_l0_3_5 - y_l0_4_5 - z_c4_l0 = 0 
R336: - y_l0_1_0 - y_l0_2_0 - y_l0_3_0 - y_l0_4_0 - y_l0_5_0 + y_l0_0_1
          + y_l0_0_2 + y_l0_0_3 + y_l0_0_4 + y_l0_0_5 + z_c0_l0 + z_c1_l0
          + z_c2_l0 + z_c3_l0 + z_c4_l0 = 0 
R337: - 3 x_l0_0_0 + y_l0_0_0 <= 0 
R338: - 3 x_l0_1_0 + y_l0_1_0 <= 0 
R339: - 3 x_l0_2_0 + y_l0_2_0 <= 0 
R340: - 3 x_l0_3_0 + y_l0_3_0 <= 0 
R341: - 3 x_l0_4_0 + y_l0_4_0 <= 0 
R342: - 3 x_l0_5_0 + y_l0_5_0 <= 0 
R343: - 3 x_l0_0_1 + y_l0_0_1 <= 0 
R344: - 3 x_l0_1_1 + y_l0_1_1 <= 0 
R345: - 3 x_l0_2_1 + y_l0_2_1 <= 0 
R346: - 3 x_l0_3_1 + y_l0_3_1 <= 0 
R347: - 3 x_l0_4_1 + y_l0_4_1 <= 0 
R348: - 3 x_l0_5_1 + y_l0_5_1 <= 0 
R349: - 3 x_l0_0_2 + y_l0_0_2 <= 0 
R350: - 3 x_l0_1_2 + y_l0_1_2 <= 0 
R351: - 3 x_l0_2_2 + y_l0_2_2 <= 0 
R352: - 3 x_l0_3_2 + y_l0_3_2 <= 0 
R353: - 3 x_l0_4_2 + y_l0_4_2 <= 0 
R354: - 3 x_l0_5_2 + y_l0_5_2 <= 0 
R355: - 3 x_l0_0_3 + y_l0_0_3 <= 0 
R356: - 3 x_l0_1_3 + y_l0_1_3 <= 0 
R357: - 3 x_l0_2_3 + y_l0_2_3 <= 0 
R358: - 3 x_l0_3_3 + y_l0_3_3 <= 0 
R359: - 3 x_l0_4_3 + y_l0_4_3 <= 0 
R360: - 3 x_l0_5_3 + y_l0_5_3 <= 0 
R361: - 3 x_l0_0_4 + y_l0_0_4 <= 0 
R362: - 3 x_l0_1_4 + y_l0_1_4 <= 0 
R363: - 3 x_l0_2_4 + y_l0_2_4 <= 0 
R364: - 3 x_l0_3_4 + y_l0_3_4 <= 0 
R365: - 3 x_l0_4_4 + y_l0_4_4 <= 0 
R366: - 3 x_l0_5_4 + y_l0_5_4 <= 0 
R367: - 3 x_l0_0_5 + y_l0_0_5 <= 0 
R368: - 3 x_l0_1_5 + y_l0_1_5 <= 0 
R369: - 3 x_l0_2_5 + y_l0_2_5 <= 0 
R370: - 3 x_l0_3_5 + y_l0_3_5 <= 0 
R371: - 3 x_l0_4_5 + y_l0_4_5 <= 0 
R372: - 3 x_l0_5_5 + y_l0_5_5 <= 0 
R373: y_l0_0_1 = 0 
R374: y_l0_0_2 = 0 
R375: y_l0_0_3 = 0 
R376: y_l0_0_4 = 0 
R377: y_l0_0_5 = 0 
R378: x_l1_0_1 + x_l1_1_1 + x_l1_2_1 + x_l1_3_1 + x_l1_4_1 + x_l1_5_1 - z_c0_l1
          = 0 
R379: x_l1_0_2 + x_l1_1_2 + x_l1_2_2 + x_l1_3_2 + x_l1_4_2 + x_l1_5_2 - z_c1_l1
          = 0 
R380: x_l1_0_3 + x_l1_1_3 + x_l1_2_3 + x_l1_3_3 + x_l1_4_3 + x_l1_5_3 - z_c2_l1
          = 0 
R381: x_l1_0_4 + x_l1_1_4 + x_l1_2_4 + x_l1_3_4 + x_l1_4_4 + x_l1_5_4 - z_c3_l1
          = 0 
R382: x_l1_0_5 + x_l1_1_5 + x_l1_2_5 + x_l1_3_5 + x_l1_4_5 + x_l1_5_5 - z_c4_l1
          = 0 
R383: x_l1_1_0 + x_l1_1_1 + x_l1_1_2 + x_l1_1_3 + x_l1_1_4 + x_l1_1_5 - z_c0_l1
          = 0 
R384: x_l1_2_0 + x_l1_2_1 + x_l1_2_2 + x_l1_2_3 + x_l1_2_4 + x_l1_2_5 - z_c1_l1
          = 0 
R385: x_l1_3_0 + x_l1_3_1 + x_l1_3_2 + x_l1_3_3 + x_l1_3_4 + x_l1_3_5 - z_c2_l1
          = 0 
R386: x_l1_4_0 + x_l1_4_1 + x_l1_4_2 + x_l1_4_3 + x_l1_4_4 + x_l1_4_5 - z_c3_l1
          = 0 
R387: x_l1_5_0 + x_l1_5_1 + x_l1_5_2 + x_l1_5_3 + x_l1_5_4 + x_l1_5_5 - z_c4_l1
          = 0 
R388: - x_l1_1_0 + x_l1_0_1 + x_l1_2_1 + x_l1_3_1 + x_l1_4_1 + x_l1_5_1
          - x_l1_1_2 - x_l1_1_3 - x_l1_1_4 - x_l1_1_5 = 0 
R389: - x_l1_2_0 - x_l1_2_1 + x_l1_0_2 + x_l1_1_2 + x_l1_3_2 + x_l1_4_2
          + x_l1_5_2 - x_l1_2_3 - x_l1_2_4 - x_l1_2_5 = 0 
R390: - x_l1_3_0 - x_l1_3_1 - x_l1_3_2 + x_l1_0_3 + x_l1_1_3 + x_l1_2_3
          + x_l1_4_3 + x_l1_5_3 - x_l1_3_4 - x_l1_3_5 = 0 
R391: - x_l1_4_0 - x_l1_4_1 - x_l1_4_2 - x_l1_4_3 + x_l1_0_4 + x_l1_1_4
          + x_l1_2_4 + x_l1_3_4 + x_l1_5_4 - x_l1_4_5 = 0 
R392: - x_l1_5_0 - x_l1_5_1 - x_l1_5_2 - x_l1_5_3 - x_l1_5_4 + x_l1_0_5
          + x_l1_1_5 + x_l1_2_5 + x_l1_3_5 + x_l1_4_5 = 0 
R393: x_l1_1_0 + x_l1_2_0 + x_l1_3_0 + x_l1_4_0 + x_l1_5_0 - x_l1_0_1
          - x_l1_0_2 - x_l1_0_3 - x_l1_0_4 - x_l1_0_5 = 0 
R394: y_l1_1_0 - y_l1_0_1 - y_l1_2_1 - y_l1_3_1 - y_l1_4_1 - y_l1_5_1
          + y_l1_1_2 + y_l1_1_3 + y_l1_1_4 + y_l1_1_5 - z_c0_l1 = 0 
R395: y_l1_2_0 + y_l1_2_1 - y_l1_0_2 - y_l1_1_2 - y_l1_3_2 - y_l1_4_2
          - y_l1_5_2 + y_l1_2_3 + y_l1_2_4 + y_l1_2_5 - z_c1_l1 = 0 
R396: y_l1_3_0 + y_l1_3_1 + y_l1_3_2 - y_l1_0_3 - y_l1_1_3 - y_l1_2_3
          - y_l1_4_3 - y_l1_5_3 + y_l1_3_4 + y_l1_3_5 - z_c2_l1 = 0 
R397: y_l1_4_0 + y_l1_4_1 + y_l1_4_2 + y_l1_4_3 - y_l1_0_4 - y_l1_1_4
          - y_l1_2_4 - y_l1_3_4 - y_l1_5_4 + y_l1_4_5 - z_c3_l1 = 0 
R398: y_l1_5_0 + y_l1_5_1 + y_l1_5_2 + y_l1_5_3 + y_l1_5_4 - y_l1_0_5
          - y_l1_1_5 - y_l1_2_5 - y_l1_3_5 - y_l1_4_5 - z_c4_l1 = 0 
R399: - y_l1_1_0 - y_l1_2_0 - y_l1_3_0 - y_l1_4_0 - y_l1_5_0 + y_l1_0_1
          + y_l1_0_2 + y_l1_0_3 + y_l1_0_4 + y_l1_0_5 + z_c0_l1 + z_c1_l1
          + z_c2_l1 + z_c3_l1 + z_c4_l1 = 0 
R400: - 3 x_l1_0_0 + y_l1_0_0 <= 0 
R401: - 3 x_l1_1_0 + y_l1_1_0 <= 0 
R402: - 3 x_l1_2_0 + y_l1_2_0 <= 0 
R403: - 3 x_l1_3_0 + y_l1_3_0 <= 0 
R404: - 3 x_l1_4_0 + y_l1_4_0 <= 0 
R405: - 3 x_l1_5_0 + y_l1_5_0 <= 0 
R406: - 3 x_l1_0_1 + y_l1_0_1 <= 0 
R407: - 3 x_l1_1_1 + y_l1_1_1 <= 0 
R408: - 3 x_l1_2_1 + y_l1_2_1 <= 0 
R409: - 3 x_l1_3_1 + y_l1_3_1 <= 0 
R410: - 3 x_l1_4_1 + y_l1_4_1 <= 0 
R411: - 3 x_l1_5_1 + y_l1_5_1 <= 0 
R412: - 3 x_l1_0_2 + y_l1_0_2 <= 0 
R413: - 3 x_l1_1_2 + y_l1_1_2 <= 0 
R414: - 3 x_l1_2_2 + y_l1_2_2 <= 0 
R415: - 3 x_l1_3_2 + y_l1_3_2 <= 0 
R416: - 3 x_l1_4_2 + y_l1_4_2 <= 0 
R417: - 3 x_l1_5_2 + y_l1_5_2 <= 0 
R418: - 3 x_l1_0_3 + y_l1_0_3 <= 0 
R419: - 3 x_l1_1_3 + y_l1_1_3 <= 0 
R420: - 3 x_l1_2_3 + y_l1_2_3 <= 0 
R421: - 3 x_l1_3_3 + y_l1_3_3 <= 0 
R422: - 3 x_l1_4_3 + y_l1_4_3 <= 0 
R423: - 3 x_l1_5_3 + y_l1_5_3 <= 0 
R424: - 3 x_l1_0_4 + y_l1_0_4 <= 0 
R425: - 3 x_l1_1_4 + y_l1_1_4 <= 0 
R426: - 3 x_l1_2_4 + y_l1_2_4 <= 0 
R427: - 3 x_l1_3_4 + y_l1_3_4 <= 0 
R428: - 3 x_l1_4_4 + y_l1_4_4 <= 0 
R429: - 3 x_l1_5_4 + y_l1_5_4 <= 0 
R430: - 3 x_l1_0_5 + y_l1_0_5 <= 0 
R431: - 3 x_l1_1_5 + y_l1_1_5 <= 0 
R432: - 3 x_l1_2_5 + y_l1_2_5 <= 0 
R433: - 3 x_l1_3_5 + y_l1_3_5 <= 0 
R434: - 3 x_l1_4_5 + y_l1_4_5 <= 0 
R435: - 3 x_l1_5_5 + y_l1_5_5 <= 0 
R436: y_l1_0_1 = 0 
R437: y_l1_0_2 = 0 
R438: y_l1_0_3 = 0 
R439: y_l1_0_4 = 0 
R440: y_l1_0_5 = 0 

Bounds

Generals
y_0_0 y_1_0 y_2_0 y_3_0 y_4_0 y_5_0 y_0_1 y_1_1 y_2_1 y_3_1 y_4_1 y_5_1 y_0_2 
y_1_2 y_2_2 y_3_2 y_4_2 y_5_2 y_0_3 y_1_3 y_2_3 y_3_3 y_4_3 y_5_3 y_0_4 y_1_4 
y_2_4 y_3_4 y_4_4 y_5_4 y_0_5 y_1_5 y_2_5 y_3_5 y_4_5 y_5_5 y_L_0_0 y_L_1_0 
y_L_2_0 y_L_0_1 y_L_1_1 y_L_2_1 y_L_0_2 y_L_1_2 y_L_2_2 y_l0_0_0 y_l0_1_0 
y_l0_2_0 y_l0_3_0 y_l0_4_0 y_l0_5_0 y_l0_0_1 y_l0_1_1 y_l0_2_1 y_l0_3_1 
y_l0_4_1 y_l0_5_1 y_l0_0_2 y_l0_1_2 y_l0_2_2 y_l0_3_2 y_l0_4_2 y_l0_5_2 
y_l0_0_3 y_l0_1_3 y_l0_2_3 y_l0_3_3 y_l0_4_3 y_l0_5_3 y_l0_0_4 y_l0_1_4 
y_l0_2_4 y_l0_3_4 y_l0_4_4 y_l0_5_4 y_l0_0_5 y_l0_1_5 y_l0_2_5 y_l0_3_5 
y_l0_4_5 y_l0_5_5 y_l1_0_0 y_l1_1_0 y_l1_2_0 y_l1_3_0 y_l1_4_0 y_l1_5_0 
y_l1_0_1 y_l1_1_1 y_l1_2_1 y_l1_3_1 y_l1_4_1 y_l1_5_1 y_l1_0_2 y_l1_1_2 
y_l1_2_2 y_l1_3_2 y_l1_4_2 y_l1_5_2 y_l1_0_3 y_l1_1_3 y_l1_2_3 y_l1_3_3 
y_l1_4_3 y_l1_5_3 y_l1_0_4 y_l1_1_4 y_l1_2_4 y_l1_3_4 y_l1_4_4 y_l1_5_4 
y_l1_0_5 y_l1_1_5 y_l1_2_5 y_l1_3_5 y_l1_4_5 y_l1_5_5 

Binaries
x_0_0 x_1_0 x_2_0 x_3_0 x_4_0 x_5_0 x_0_1 x_1_1 x_2_1 x_3_1 x_4_1 x_5_1 x_0_2 
x_1_2 x_2_2 x_3_2 x_4_2 x_5_2 x_0_3 x_1_3 x_2_3 x_3_3 x_4_3 x_5_3 x_0_4 x_1_4 
x_2_4 x_3_4 x_4_4 x_5_4 x_0_5 x_1_5 x_2_5 x_3_5 x_4_5 x_5_5 x_L_0_0 x_L_1_0 
x_L_2_0 x_L_0_1 x_L_1_1 x_L_2_1 x_L_0_2 x_L_1_2 x_L_2_2 x_l0_0_0 x_l0_1_0 
x_l0_2_0 x_l0_3_0 x_l0_4_0 x_l0_5_0 x_l0_0_1 x_l0_1_1 x_l0_2_1 x_l0_3_1 
x_l0_4_1 x_l0_5_1 x_l0_0_2 x_l0_1_2 x_l0_2_2 x_l0_3_2 x_l0_4_2 x_l0_5_2 
x_l0_0_3 x_l0_1_3 x_l0_2_3 x_l0_3_3 x_l0_4_3 x_l0_5_3 x_l0_0_4 x_l0_1_4 
x_l0_2_4 x_l0_3_4 x_l0_4_4 x_l0_5_4 x_l0_0_5 x_l0_1_5 x_l0_2_5 x_l0_3_5 
x_l0_4_5 x_l0_5_5 x_l1_0_0 x_l1_1_0 x_l1_2_0 x_l1_3_0 x_l1_4_0 x_l1_5_0 
x_l1_0_1 x_l1_1_1 x_l1_2_1 x_l1_3_1 x_l1_4_1 x_l1_5_1 x_l1_0_2 x_l1_1_2 
x_l1_2_2 x_l1_3_2 x_l1_4_2 x_l1_5_2 x_l1_0_3 x_l1_1_3 x_l1_2_3 x_l1_3_3 
x_l1_4_3 x_l1_5_3 x_l1_0_4 x_l1_1_4 x_l1_2_4 x_l1_3_4 x_l1_4_4 x_l1_5_4 
x_l1_0_5 x_l1_1_5 x_l1_2_5 x_l1_3_5 x_l1_4_5 x_l1_5_5 z_c0 z_c1 z_c2 z_c3 z_c4 
z_c0_l0 z_c1_l0 z_c2_l0 z_c3_l0 z_c4_l0 z_c0_l1 z_c1_l1 z_c2_l1 z_c3_l1 
z_c4_l1 z_l_L_0 z_l_L_1 w_c0_k0 w_c1_k0 w_c2_k0 w_c0_k1 w_c1_k1 w_c2_k1 
w_c0_k2 w_c1_k2 w_c2_k2 

End
